param n := 120;
param c := 3000
param : V : p w :=
   0	 380	 370
   1	 296	 286
   2	 354	 344
   3	 372	 362
   4	 304	 294
   5	 354	 344
   6	 476	 466
   7	 273	 263
   8	 281	 271
   9	 495	 485
  10	 263	 253
  11	 272	 262
  12	 386	 376
  13	 314	 304
  14	 330	 320
  15	 423	 413
  16	 298	 288
  17	 309	 299
  18	 383	 373
  19	 287	 277
  20	 360	 350
  21	 436	 426
  22	 273	 263
  23	 321	 311
  24	 490	 480
  25	 265	 255
  26	 275	 265
  27	 391	 381
  28	 269	 259
  29	 370	 360
  30	 409	 399
  31	 282	 272
  32	 339	 329
  33	 439	 429
  34	 284	 274
  35	 307	 297
  36	 405	 395
  37	 268	 258
  38	 357	 347
  39	 473	 463
  40	 267	 257
  41	 290	 280
  42	 508	 498
  43	 260	 250
  44	 262	 252
  45	 422	 412
  46	 268	 258
  47	 340	 330
  48	 509	 499
  49	 260	 250
  50	 261	 251
  51	 468	 458
  52	 277	 267
  53	 285	 275
  54	 360	 350
  55	 293	 283
  56	 377	 367
  57	 444	 434
  58	 287	 277
  59	 299	 289
  60	 380	 370
  61	 283	 273
  62	 367	 357
  63	 505	 495
  64	 260	 250
  65	 265	 255
  66	 474	 464
  67	 264	 254
  68	 292	 282
  69	 371	 361
  70	 300	 290
  71	 359	 349
  72	 361	 351
  73	 261	 251
  74	 408	 398
  75	 380	 370
  76	 297	 287
  77	 353	 343
  78	 438	 428
  79	 267	 257
  80	 325	 315
  81	 455	 445
  82	 282	 272
  83	 293	 283
  84	 450	 440
  85	 264	 254
  86	 316	 306
  87	 445	 435
  88	 289	 279
  89	 296	 286
  90	 461	 451
  91	 278	 268
  92	 291	 281
  93	 440	 430
  94	 271	 261
  95	 319	 309
  96	 378	 368
  97	 284	 274
  98	 368	 358
  99	 437	 427
 100	 260	 250
 101	 333	 323
 102	 454	 444
 103	 280	 270
 104	 296	 286
 105	 504	 494
 106	 260	 250
 107	 266	 256
 108	 378	 368
 109	 310	 300
 110	 342	 332
 111	 501	 491
 112	 263	 253
 113	 266	 256
 114	 436	 426
 115	 284	 274
 116	 310	 300
 117	 505	 495
 118	 260	 250
 119	 265	 255
;

set E :=
   0	  22
   0	  28
   0	  31
   0	  33
   0	  39
   0	  48
   0	  49
   0	  50
   0	  53
   0	  56
   0	  62
   0	  63
   0	  73
   0	  80
   0	  87
   0	  89
   0	  96
   0	  97
   0	 102
   0	 106
   0	 119
   1	   2
   1	   3
   1	   5
   1	   9
   1	  12
   1	  16
   1	  26
   1	  27
   1	  30
   1	  33
   1	  53
   1	  57
   1	  68
   1	  70
   1	  73
   1	  79
   1	  80
   1	  91
   1	  92
   1	 109
   1	 111
   2	   4
   2	   6
   2	   7
   2	   8
   2	  10
   2	  13
   2	  24
   2	  31
   2	  41
   2	  42
   2	  46
   2	  49
   2	  53
   2	  56
   2	  58
   2	  73
   2	  80
   2	  91
   2	  92
   2	  94
   2	  98
   2	 101
   2	 105
   2	 110
   2	 112
   3	  11
   3	  13
   3	  15
   3	  18
   3	  20
   3	  21
   3	  25
   3	  33
   3	  35
   3	  38
   3	  39
   3	  48
   3	  52
   3	  63
   3	  73
   3	  76
   3	  79
   3	  84
   3	  88
   3	  89
   3	  91
   3	  92
   3	  99
   3	 100
   3	 105
   3	 110
   3	 111
   3	 114
   3	 117
   3	 119
   4	   5
   4	   8
   4	  14
   4	  17
   4	  19
   4	  23
   4	  29
   4	  34
   4	  43
   4	  46
   4	  64
   4	  72
   4	  73
   4	  79
   4	  80
   4	  95
   4	 100
   4	 104
   4	 106
   5	   6
   5	   7
   5	  11
   5	  19
   5	  20
   5	  25
   5	  30
   5	  31
   5	  32
   5	  34
   5	  35
   5	  36
   5	  40
   5	  46
   5	  47
   5	  51
   5	  58
   5	  59
   5	  65
   5	  74
   5	  78
   5	  82
   5	  89
   5	  90
   5	  97
   5	 101
   5	 110
   5	 111
   5	 112
   6	  19
   6	  22
   6	  33
   6	  39
   6	  43
   6	  50
   6	  54
   6	  58
   6	  59
   6	  74
   6	  78
   6	  80
   6	  82
   6	  86
   6	  88
   6	  92
   6	  94
   6	 102
   6	 114
   6	 116
   7	  10
   7	  19
   7	  26
   7	  34
   7	  39
   7	  43
   7	  44
   7	  50
   7	  53
   7	  68
   7	  76
   7	  82
   7	  96
   7	  97
   7	  98
   7	 100
   7	 107
   7	 115
   8	  12
   8	  15
   8	  16
   8	  21
   8	  23
   8	  25
   8	  42
   8	  44
   8	  52
   8	  57
   8	  60
   8	  64
   8	  66
   8	  68
   8	  71
   8	  74
   8	  82
   8	  84
   8	  90
   8	  91
   8	  94
   8	 103
   8	 107
   8	 111
   8	 112
   8	 113
   9	  10
   9	  12
   9	  14
   9	  15
   9	  25
   9	  32
   9	  44
   9	  46
   9	  47
   9	  55
   9	  57
   9	  61
   9	  64
   9	  65
   9	  70
   9	  76
   9	  79
   9	  87
   9	  93
   9	  99
   9	 104
   9	 107
   9	 114
   9	 115
  10	  12
  10	  15
  10	  19
  10	  21
  10	  22
  10	  28
  10	  30
  10	  32
  10	  33
  10	  34
  10	  39
  10	  40
  10	  50
  10	  58
  10	  64
  10	  83
  10	  86
  10	  93
  10	  96
  10	 104
  10	 106
  10	 109
  10	 116
  10	 119
  11	  15
  11	  23
  11	  30
  11	  31
  11	  35
  11	  43
  11	  47
  11	  51
  11	  63
  11	  74
  11	  76
  11	  84
  11	  89
  11	  93
  11	  94
  11	 103
  11	 105
  11	 107
  11	 115
  12	  15
  12	  17
  12	  19
  12	  20
  12	  23
  12	  25
  12	  27
  12	  34
  12	  37
  12	  38
  12	  41
  12	  48
  12	  51
  12	  57
  12	  60
  12	  62
  12	  64
  12	  69
  12	  73
  12	  78
  12	  81
  12	  89
  12	  90
  12	  94
  12	  96
  12	 107
  12	 115
  12	 118
  13	  18
  13	  20
  13	  22
  13	  29
  13	  38
  13	  45
  13	  49
  13	  50
  13	  60
  13	  62
  13	  63
  13	  71
  13	  74
  13	  78
  13	  80
  13	  82
  13	  84
  13	  92
  13	  96
  13	 111
  13	 117
  13	 118
  14	  19
  14	  23
  14	  27
  14	  30
  14	  44
  14	  45
  14	  53
  14	  65
  14	  67
  14	  68
  14	  74
  14	  83
  14	  89
  14	  92
  14	 100
  14	 103
  14	 110
  14	 113
  14	 118
  15	  17
  15	  24
  15	  39
  15	  45
  15	  46
  15	  51
  15	  57
  15	  60
  15	  61
  15	  62
  15	  64
  15	  65
  15	  66
  15	  74
  15	  83
  15	  86
  15	  93
  15	  95
  15	 100
  15	 109
  15	 112
  15	 115
  15	 119
  16	  17
  16	  20
  16	  22
  16	  28
  16	  39
  16	  45
  16	  57
  16	  59
  16	  68
  16	  80
  16	  92
  16	  94
  16	 101
  16	 114
  16	 119
  17	  20
  17	  23
  17	  28
  17	  34
  17	  42
  17	  46
  17	  56
  17	  58
  17	  65
  17	  66
  17	  69
  17	  90
  17	  93
  17	 100
  17	 103
  17	 105
  17	 109
  17	 110
  17	 111
  17	 112
  18	  26
  18	  27
  18	  29
  18	  30
  18	  38
  18	  43
  18	  46
  18	  47
  18	  49
  18	  52
  18	  59
  18	  61
  18	  65
  18	  68
  18	  74
  18	  77
  18	  85
  18	  94
  18	  98
  18	  99
  18	 105
  18	 106
  18	 107
  18	 108
  18	 116
  19	  20
  19	  24
  19	  27
  19	  34
  19	  46
  19	  47
  19	  48
  19	  52
  19	  59
  19	  60
  19	  63
  19	  68
  19	  90
  19	  91
  19	 100
  19	 103
  19	 104
  19	 105
  19	 107
  19	 112
  20	  21
  20	  28
  20	  29
  20	  30
  20	  37
  20	  48
  20	  49
  20	  59
  20	  62
  20	  68
  20	  75
  20	  79
  20	  81
  20	  82
  20	  87
  20	  88
  20	 104
  20	 108
  20	 115
  20	 117
  20	 119
  21	  23
  21	  31
  21	  53
  21	  54
  21	  68
  21	  69
  21	  72
  21	  79
  21	  80
  21	  84
  21	  88
  21	  90
  21	  93
  21	  95
  21	  97
  21	 100
  21	 103
  21	 112
  21	 115
  21	 117
  22	  25
  22	  31
  22	  51
  22	  54
  22	  56
  22	  61
  22	  68
  22	  69
  22	  74
  22	  75
  22	  83
  22	  97
  22	  98
  22	 104
  22	 114
  22	 116
  23	  24
  23	  25
  23	  29
  23	  33
  23	  34
  23	  36
  23	  38
  23	  41
  23	  42
  23	  54
  23	  55
  23	  60
  23	  62
  23	  65
  23	  68
  23	  69
  23	  73
  23	  76
  23	  84
  23	  93
  23	 101
  23	 103
  23	 118
  24	  26
  24	  27
  24	  28
  24	  32
  24	  35
  24	  37
  24	  38
  24	  39
  24	  40
  24	  46
  24	  47
  24	  48
  24	  68
  24	  73
  24	  78
  24	  81
  24	  82
  24	  84
  24	  85
  24	  95
  24	  98
  24	  99
  24	 100
  24	 105
  24	 112
  24	 118
  24	 119
  25	  31
  25	  35
  25	  36
  25	  38
  25	  39
  25	  43
  25	  48
  25	  49
  25	  54
  25	  65
  25	  67
  25	  72
  25	  76
  25	  77
  25	  83
  25	  88
  25	  91
  25	 100
  25	 104
  25	 106
  25	 107
  25	 108
  26	  57
  26	  67
  26	  72
  26	  79
  26	  81
  26	  82
  26	  86
  26	  98
  26	 103
  26	 106
  27	  31
  27	  34
  27	  35
  27	  36
  27	  41
  27	  49
  27	  53
  27	  65
  27	  70
  27	  74
  27	  77
  27	  80
  27	  88
  27	  89
  27	  95
  27	  97
  27	  98
  27	 102
  27	 103
  27	 107
  27	 110
  27	 111
  27	 112
  27	 113
  27	 119
  28	  30
  28	  34
  28	  45
  28	  47
  28	  49
  28	  51
  28	  60
  28	  61
  28	  62
  28	  65
  28	  68
  28	  70
  28	  71
  28	  80
  28	  85
  28	  88
  28	  89
  28	  90
  28	  92
  28	 105
  28	 106
  28	 111
  29	  31
  29	  39
  29	  42
  29	  44
  29	  54
  29	  59
  29	  61
  29	  67
  29	  68
  29	  74
  29	  75
  29	  82
  29	  85
  29	  92
  29	  95
  29	  98
  29	 102
  29	 105
  29	 111
  29	 112
  30	  33
  30	  36
  30	  41
  30	  42
  30	  47
  30	  51
  30	  57
  30	  62
  30	  63
  30	  81
  30	  89
  30	  93
  30	  95
  30	 103
  30	 104
  30	 108
  30	 112
  30	 113
  30	 117
  31	  33
  31	  42
  31	  47
  31	  48
  31	  58
  31	  59
  31	  61
  31	  62
  31	  63
  31	  64
  31	  71
  31	  74
  31	  77
  31	  79
  31	  83
  31	  86
  31	  87
  31	  91
  31	  93
  31	  99
  31	 106
  31	 111
  31	 114
  32	  34
  32	  38
  32	  41
  32	  43
  32	  47
  32	  53
  32	  54
  32	  55
  32	  58
  32	  63
  32	  66
  32	  69
  32	  71
  32	  73
  32	  81
  32	  85
  32	  91
  32	 109
  32	 111
  32	 112
  32	 113
  32	 118
  33	  35
  33	  37
  33	  45
  33	  50
  33	  51
  33	  52
  33	  55
  33	  64
  33	  78
  33	  79
  33	  83
  33	  84
  33	  94
  33	 100
  33	 101
  33	 105
  33	 107
  33	 111
  33	 112
  33	 117
  34	  43
  34	  47
  34	  49
  34	  50
  34	  53
  34	  56
  34	  67
  34	  72
  34	  73
  34	  82
  34	  83
  34	  86
  34	  94
  34	  96
  34	 106
  34	 112
  34	 113
  34	 119
  35	  46
  35	  49
  35	  50
  35	  60
  35	  63
  35	  65
  35	  70
  35	  77
  35	  78
  35	  79
  35	  80
  35	  82
  35	  85
  35	  97
  35	 100
  35	 105
  35	 112
  36	  43
  36	  46
  36	  48
  36	  54
  36	  56
  36	  59
  36	  60
  36	  69
  36	  74
  36	  77
  36	  79
  36	  88
  36	  91
  36	  95
  36	  99
  36	 110
  36	 113
  36	 114
  36	 117
  37	  41
  37	  42
  37	  43
  37	  44
  37	  51
  37	  59
  37	  62
  37	  65
  37	  75
  37	  77
  37	  81
  37	  84
  37	  90
  37	  92
  37	  93
  37	  97
  37	  99
  37	 100
  37	 104
  37	 109
  37	 119
  38	  42
  38	  45
  38	  49
  38	  55
  38	  61
  38	  62
  38	  66
  38	  68
  38	  70
  38	  78
  38	  84
  38	  87
  38	 104
  38	 105
  38	 111
  38	 114
  38	 116
  39	  46
  39	  50
  39	  57
  39	  61
  39	  68
  39	  72
  39	  78
  39	  80
  39	  81
  39	  83
  39	  84
  39	  90
  39	  91
  39	 113
  39	 114
  39	 116
  39	 118
  39	 119
  40	  41
  40	  45
  40	  52
  40	  61
  40	  71
  40	  72
  40	  73
  40	  89
  40	 101
  40	 109
  41	  50
  41	  51
  41	  56
  41	  57
  41	  60
  41	  85
  41	  87
  41	  92
  41	  94
  41	  98
  41	 103
  41	 109
  41	 112
  41	 116
  41	 119
  42	  46
  42	  47
  42	  52
  42	  54
  42	  58
  42	  65
  42	  66
  42	  69
  42	  70
  42	  74
  42	  77
  42	  80
  42	  86
  42	  92
  42	  95
  42	  97
  42	 103
  42	 104
  42	 117
  42	 119
  43	  71
  43	  78
  43	  86
  43	  92
  43	 107
  43	 117
  44	  48
  44	  53
  44	  62
  44	  67
  44	  68
  44	  77
  44	  83
  44	  87
  44	  91
  44	  95
  44	 103
  44	 115
  44	 117
  44	 119
  45	  51
  45	  52
  45	  53
  45	  55
  45	  56
  45	  57
  45	  77
  45	  81
  45	  82
  45	  88
  45	  94
  45	  96
  45	  99
  45	 107
  45	 114
  45	 116
  46	  49
  46	  55
  46	  61
  46	  63
  46	  67
  46	  69
  46	  75
  46	  76
  46	  81
  46	  82
  46	  83
  46	  86
  46	  89
  46	  94
  46	  96
  46	 103
  46	 112
  46	 116
  47	  57
  47	  59
  47	  60
  47	  68
  47	  76
  47	  77
  47	  84
  47	  93
  47	  96
  47	 101
  47	 104
  47	 105
  48	  52
  48	  56
  48	  59
  48	  72
  48	  73
  48	  74
  48	  83
  48	  85
  48	  87
  48	  91
  48	 101
  48	 108
  48	 113
  49	  55
  49	  71
  49	  74
  49	  75
  49	  78
  49	  87
  49	  91
  49	  93
  49	  95
  50	  52
  50	  55
  50	  57
  50	  76
  50	  83
  50	  84
  50	  99
  50	 101
  50	 103
  50	 105
  50	 118
  50	 119
  51	  66
  51	  67
  51	  69
  51	  71
  51	  93
  51	 101
  51	 111
  51	 115
  51	 117
  51	 118
  51	 119
  52	  53
  52	  54
  52	  57
  52	  64
  52	  66
  52	  84
  52	  91
  52	  95
  52	  97
  52	 110
  52	 112
  52	 117
  53	  60
  53	  64
  53	  65
  53	  66
  53	  72
  53	  80
  53	  82
  53	  89
  53	  91
  53	  95
  53	  99
  53	 100
  53	 104
  53	 106
  53	 119
  54	  57
  54	  59
  54	  61
  54	  62
  54	  66
  54	  76
  54	  94
  54	  97
  54	 100
  54	 106
  54	 113
  54	 118
  55	  60
  55	  62
  55	  70
  55	  74
  55	  82
  55	  90
  55	  95
  55	  99
  55	 103
  55	 108
  55	 117
  55	 118
  55	 119
  56	  60
  56	  66
  56	  84
  56	  87
  56	  88
  56	  89
  56	  92
  56	  98
  56	 103
  56	 111
  56	 114
  56	 115
  56	 119
  57	  58
  57	  61
  57	  65
  57	  84
  57	  86
  57	  87
  57	  89
  57	 108
  58	  59
  58	  61
  58	  62
  58	  65
  58	  69
  58	  78
  58	  82
  58	  86
  58	  91
  58	  93
  58	  99
  58	 104
  58	 106
  58	 110
  58	 112
  58	 117
  59	  66
  59	  76
  59	  77
  59	  79
  59	  81
  59	 101
  59	 103
  59	 104
  59	 112
  59	 118
  60	  61
  60	  65
  60	  90
  60	  95
  60	  98
  60	  99
  60	 100
  60	 104
  60	 108
  60	 109
  60	 114
  60	 119
  61	  63
  61	  65
  61	  66
  61	  72
  61	  76
  61	  79
  61	  86
  61	  89
  61	 108
  61	 115
  62	  63
  62	  67
  62	  70
  62	  72
  62	  76
  62	  86
  62	 102
  62	 105
  62	 106
  63	  71
  63	  72
  63	  80
  63	  82
  63	  88
  63	  89
  63	  91
  63	  94
  63	  96
  63	 104
  63	 106
  63	 117
  64	  65
  64	  66
  64	  72
  64	  80
  64	  83
  64	  88
  64	  96
  64	  99
  64	 104
  65	  66
  65	  74
  65	  76
  65	  85
  65	  95
  65	  98
  65	 105
  65	 109
  65	 116
  66	  82
  66	  87
  66	  89
  66	  94
  66	  99
  66	 105
  66	 108
  66	 110
  66	 113
  66	 116
  67	  71
  67	  76
  67	  81
  67	  83
  67	  89
  67	  91
  67	  92
  67	 102
  67	 106
  67	 107
  67	 116
  67	 118
  68	  69
  68	  70
  68	  72
  68	  73
  68	  80
  68	  87
  68	 100
  68	 103
  68	 104
  68	 107
  68	 115
  68	 117
  69	  81
  69	  83
  69	  84
  69	  88
  69	  92
  69	  96
  69	 106
  69	 109
  70	  75
  70	  91
  70	 109
  70	 119
  71	  82
  71	  85
  71	  86
  71	 100
  71	 101
  71	 105
  72	  76
  72	  81
  72	  87
  72	  89
  72	  90
  72	  92
  72	  96
  72	  99
  72	 100
  72	 103
  72	 109
  72	 117
  73	  79
  73	  82
  73	  87
  73	  89
  73	  95
  73	  96
  73	  98
  73	 100
  73	 105
  73	 107
  73	 109
  73	 111
  73	 117
  74	  77
  74	  79
  74	  88
  74	  90
  74	  94
  74	  97
  74	 103
  74	 110
  74	 114
  74	 115
  74	 116
  74	 118
  75	  86
  75	  96
  75	  97
  75	  99
  75	 101
  75	 104
  75	 108
  75	 115
  75	 118
  75	 119
  76	  82
  76	  86
  76	  92
  76	  93
  76	 103
  76	 114
  76	 115
  77	  78
  77	  79
  77	  90
  77	  91
  77	  95
  77	  98
  77	 114
  77	 115
  78	  86
  78	  92
  78	  99
  78	 102
  78	 109
  78	 117
  78	 119
  79	  83
  79	  92
  79	  97
  79	  98
  79	 108
  79	 109
  79	 112
  79	 119
  80	  82
  80	  89
  80	  92
  80	  97
  80	 100
  80	 109
  80	 118
  81	  83
  81	  97
  81	  98
  81	 101
  81	 103
  81	 106
  81	 107
  81	 113
  81	 116
  82	  94
  82	  95
  82	  98
  82	  99
  82	 100
  82	 103
  82	 111
  82	 116
  82	 117
  82	 118
  82	 119
  83	  89
  83	  90
  83	  93
  83	  96
  83	  97
  83	 100
  83	 102
  83	 103
  83	 107
  84	  91
  84	  92
  84	  98
  84	 107
  84	 108
  84	 109
  84	 116
  85	  86
  85	  87
  85	  94
  85	  96
  85	 104
  86	  87
  86	  99
  86	 110
  86	 118
  87	  97
  87	 101
  87	 103
  87	 105
  87	 106
  88	  92
  88	  97
  88	 105
  88	 111
  89	  90
  89	 101
  89	 106
  89	 108
  89	 109
  89	 118
  90	 101
  90	 105
  90	 110
  90	 118
  90	 119
  91	  93
  91	  95
  91	  98
  91	  99
  91	 101
  91	 105
  91	 106
  91	 112
  92	  94
  92	  95
  92	  97
  92	 100
  92	 101
  92	 105
  92	 108
  92	 110
  92	 117
  93	 100
  93	 101
  93	 102
  93	 105
  94	 106
  94	 109
  94	 114
  94	 115
  95	  98
  95	 100
  95	 107
  95	 109
  95	 111
  95	 112
  96	  98
  96	 100
  96	 106
  96	 118
  97	 104
  97	 109
  97	 119
  98	 103
  98	 107
  98	 109
  98	 110
  98	 113
  98	 118
  99	 100
  99	 102
  99	 104
  99	 107
  99	 108
  99	 113
  99	 115
  99	 119
 100	 106
 101	 107
 101	 112
 103	 105
 104	 106
 104	 109
 105	 107
 105	 114
 106	 117
 107	 110
 107	 111
 107	 115
 108	 109
 108	 110
 108	 118
 109	 112
 109	 116
 109	 117
 110	 112
 111	 118
 111	 119
 112	 116
 113	 118
;
